************************************************************************
file with basedata            : ?
initial value random generator: ?
************************************************************************
projects                      :  1
jobs (incl. supersource/sink ):  102
horizon                       :  ?
RESOURCES
  - renewable                 :  10   R
  - nonrenewable              :  0   N
  - doubly constrained        :  0   D
************************************************************************
PROJECT INFORMATION:
pronr.  #jobs rel.date duedate tardcost  MPM-Time
    1     100      0       ?       ?       ?
************************************************************************
PRECEDENCE RELATIONS:
jobnr.    #modes  #successors   successors
1      1      10      2  12  22  32  42  52  62  72  82  92
2      1      1      3
3      1      1      4
4      1      1      5
5      1      1      6
6      1      1      7
7      1      1      8
8      1      1      9
9      1      1      10
10      1      1      11
11      1      1      102
12      1      1      13
13      1      1      14
14      1      1      15
15      1      1      16
16      1      1      17
17      1      1      18
18      1      1      19
19      1      1      20
20      1      1      21
21      1      1      102
22      1      1      23
23      1      1      24
24      1      1      25
25      1      1      26
26      1      1      27
27      1      1      28
28      1      1      29
29      1      1      30
30      1      1      31
31      1      1      102
32      1      1      33
33      1      1      34
34      1      1      35
35      1      1      36
36      1      1      37
37      1      1      38
38      1      1      39
39      1      1      40
40      1      1      41
41      1      1      102
42      1      1      43
43      1      1      44
44      1      1      45
45      1      1      46
46      1      1      47
47      1      1      48
48      1      1      49
49      1      1      50
50      1      1      51
51      1      1      102
52      1      1      53
53      1      1      54
54      1      1      55
55      1      1      56
56      1      1      57
57      1      1      58
58      1      1      59
59      1      1      60
60      1      1      61
61      1      1      102
62      1      1      63
63      1      1      64
64      1      1      65
65      1      1      66
66      1      1      67
67      1      1      68
68      1      1      69
69      1      1      70
70      1      1      71
71      1      1      102
72      1      1      73
73      1      1      74
74      1      1      75
75      1      1      76
76      1      1      77
77      1      1      78
78      1      1      79
79      1      1      80
80      1      1      81
81      1      1      102
82      1      1      83
83      1      1      84
84      1      1      85
85      1      1      86
86      1      1      87
87      1      1      88
88      1      1      89
89      1      1      90
90      1      1      91
91      1      1      102
92      1      1      93
93      1      1      94
94      1      1      95
95      1      1      96
96      1      1      97
97      1      1      98
98      1      1      99
99      1      1      100
100      1      1      101
101      1      1      102
102      1      0      
************************************************************************
REQUESTS/DURATIONS:
jobnr. mode duration  R 1  R 2  R 3  R 4  R 5  R 6  R 7  R 8  R 9  R 10
------------------------------------------------------------------------
1      1      0      0   0   0   0   0   0   0   0   0   0
2      1      33      0   0   0   0   0   0   0   0   1   0
3      1      68      0   0   0   0   0   0   0   0   0   1
4      1      46      0   0   0   0   0   0   0   1   0   0
5      1      27      0   0   0   0   0   0   1   0   0   0
6      1      52      0   0   0   0   1   0   0   0   0   0
7      1      6      0   0   1   0   0   0   0   0   0   0
8      1      88      1   0   0   0   0   0   0   0   0   0
9      1      4      0   0   0   1   0   0   0   0   0   0
10      1      83      0   0   0   0   0   1   0   0   0   0
11      1      97      0   1   0   0   0   0   0   0   0   0
12      1      17      0   0   0   0   0   0   0   1   0   0
13      1      60      0   0   0   0   0   0   0   0   0   1
14      1      74      0   0   0   0   0   1   0   0   0   0
15      1      18      0   0   0   0   0   0   1   0   0   0
16      1      10      0   0   1   0   0   0   0   0   0   0
17      1      50      1   0   0   0   0   0   0   0   0   0
18      1      32      0   0   0   1   0   0   0   0   0   0
19      1      16      0   0   0   0   1   0   0   0   0   0
20      1      84      0   1   0   0   0   0   0   0   0   0
21      1      68      0   0   0   0   0   0   0   0   1   0
22      1      70      0   0   0   0   0   0   0   0   1   0
23      1      17      0   0   0   0   0   0   0   1   0   0
24      1      37      0   0   0   0   1   0   0   0   0   0
25      1      57      0   0   0   0   0   0   0   0   0   1
26      1      14      0   1   0   0   0   0   0   0   0   0
27      1      61      0   0   1   0   0   0   0   0   0   0
28      1      31      0   0   0   1   0   0   0   0   0   0
29      1      93      1   0   0   0   0   0   0   0   0   0
30      1      74      0   0   0   0   0   0   1   0   0   0
31      1      44      0   0   0   0   0   1   0   0   0   0
32      1      77      0   0   0   1   0   0   0   0   0   0
33      1      93      0   0   0   0   1   0   0   0   0   0
34      1      82      0   0   1   0   0   0   0   0   0   0
35      1      1      0   0   0   0   0   1   0   0   0   0
36      1      74      0   0   0   0   0   0   0   1   0   0
37      1      84      0   0   0   0   0   0   0   0   0   1
38      1      60      0   0   0   0   0   0   1   0   0   0
39      1      69      0   1   0   0   0   0   0   0   0   0
40      1      89      0   0   0   0   0   0   0   0   1   0
41      1      34      1   0   0   0   0   0   0   0   0   0
42      1      13      1   0   0   0   0   0   0   0   0   0
43      1      77      0   0   0   0   0   0   0   1   0   0
44      1      41      0   0   0   0   0   0   0   0   1   0
45      1      97      0   0   0   0   0   0   1   0   0   0
46      1      14      0   1   0   0   0   0   0   0   0   0
47      1      46      0   0   0   1   0   0   0   0   0   0
48      1      54      0   0   1   0   0   0   0   0   0   0
49      1      28      0   0   0   0   1   0   0   0   0   0
50      1      54      0   0   0   0   0   1   0   0   0   0
51      1      74      0   0   0   0   0   0   0   0   0   1
52      1      13      0   0   0   0   0   0   0   1   0   0
53      1      4      0   0   0   0   1   0   0   0   0   0
54      1      79      0   0   0   1   0   0   0   0   0   0
55      1      82      1   0   0   0   0   0   0   0   0   0
56      1      72      0   0   0   0   0   1   0   0   0   0
57      1      68      0   0   0   0   0   0   0   0   1   0
58      1      25      0   0   0   0   0   0   1   0   0   0
59      1      78      0   1   0   0   0   0   0   0   0   0
60      1      40      0   0   0   0   0   0   0   0   0   1
61      1      44      0   0   1   0   0   0   0   0   0   0
62      1      38      0   0   0   1   0   0   0   0   0   0
63      1      35      0   0   0   0   0   0   0   0   0   1
64      1      52      0   0   1   0   0   0   0   0   0   0
65      1      35      0   0   0   0   0   1   0   0   0   0
66      1      78      0   0   0   0   0   0   0   1   0   0
67      1      75      0   1   0   0   0   0   0   0   0   0
68      1      58      0   0   0   0   0   0   0   0   1   0
69      1      95      1   0   0   0   0   0   0   0   0   0
70      1      95      0   0   0   0   0   0   1   0   0   0
71      1      54      0   0   0   0   1   0   0   0   0   0
72      1      47      0   0   0   0   0   0   1   0   0   0
73      1      18      0   0   0   0   1   0   0   0   0   0
74      1      4      0   1   0   0   0   0   0   0   0   0
75      1      61      1   0   0   0   0   0   0   0   0   0
76      1      70      0   0   0   0   0   0   0   0   1   0
77      1      14      0   0   0   0   0   0   0   1   0   0
78      1      2      0   0   0   1   0   0   0   0   0   0
79      1      59      0   0   1   0   0   0   0   0   0   0
80      1      19      0   0   0   0   0   1   0   0   0   0
81      1      7      0   0   0   0   0   0   0   0   0   1
82      1      39      1   0   0   0   0   0   0   0   0   0
83      1      57      0   0   0   0   0   1   0   0   0   0
84      1      67      0   0   0   0   1   0   0   0   0   0
85      1      82      0   0   0   0   0   0   0   0   0   1
86      1      95      0   1   0   0   0   0   0   0   0   0
87      1      45      0   0   0   0   0   0   0   1   0   0
88      1      34      0   0   1   0   0   0   0   0   0   0
89      1      59      0   0   0   1   0   0   0   0   0   0
90      1      76      0   0   0   0   0   0   1   0   0   0
91      1      50      0   0   0   0   0   0   0   0   1   0
92      1      53      0   1   0   0   0   0   0   0   0   0
93      1      55      0   0   0   0   1   0   0   0   0   0
94      1      40      0   0   0   0   0   0   0   0   1   0
95      1      80      0   0   0   1   0   0   0   0   0   0
96      1      81      1   0   0   0   0   0   0   0   0   0
97      1      40      0   0   1   0   0   0   0   0   0   0
98      1      12      0   0   0   0   0   0   0   0   0   1
99      1      26      0   0   0   0   0   0   0   1   0   0
100      1      46      0   0   0   0   0   1   0   0   0   0
101      1      24      0   0   0   0   0   0   1   0   0   0
102      1      0      0   0   0   0   0   0   0   0   0   0
************************************************************************
RESOURCEAVAILABILITIES:
   R 1   R 2   R 3   R 4   R 5   R 6   R 7   R 8   R 9   R 10
   1   1   1   1   1   1   1   1   1   1
************************************************************************